         0         0         0         0         0         0         0         0         0        55         0        74         0         0         0
         0         0        55         0        42         0         0        23         0         0        41         0         0        52         0
        82         0         0        68         0         0         0         0         0         0         0         0         0         0         0
         0         0         0         0        82         0        72         0         0         0         0         0        51         0         0
        68        42         0         0         0        74         0        52        21         0         0         0         0         0        23
         0         0         0         0         0         0         0         0         0        31         0        37        51         0         0
         0         0         0         0        23        61         0         0         0         0        77         0         0         0         0
         0        23         0         0         0         0        42         0         0         0         0         0         0         0         0
        51         0         0         0         0         0         0         0         0        29         0         0         0         0         0
         0         0        29         0         0         0         0         0        29         0         0         0         0         0         0
         0         0         0         0         0         0         0         0         0         0         0        65         0         0         0
         0        51         0         0         0         0        37         0         0        21        65         0         0         0        55
         0         0         0         0        46         0         0         0         0         0         0         0         0         0         0
        72         0         0        43         0         0         0         0         0         0         0         0        62         0        59
         0         0         0         0         0        59         0         0         0         0         0         0         0         0         0
